100
1000
163
162
161
159
159
156
155
153
152
150
150
150
149
148
141
140
139
138
137
137
137
136
134
134
134
133
132
130
130
128
127
126
126
125
124
123
121
121
120
119
119
116
116
115
115
115
115
114
111
108
107
106
105
104
102
102
100
100
99
98
97
96
96
90
90
89
89
89
87
86
83
82
81
78
76
74
74
74
72
70
69
68
68
66
65
65
64
64
63
62
62
62
62
61
60
60
59
58
58
58
